NAME : graph19
COMMENT : H Algorithm Solution by Oscar Riveros [http://twitter.com/maxtuno]
TYPE : TOUR
DIMENSION : 170
TOUR_SECTION
72
130
41
3
132
165
141
150
146
128
43
44
83
156
71
29
63
88
110
139
70
28
26
68
25
13
87
120
65
122
86
148
142
167
169
35
23
103
147
16
15
124
58
33
158
67
131
19
85
123
115
78
155
89
113
166
91
6
152
109
10
93
135
104
137
66
119
105
81
170
80
64
112
51
27
40
4
163
98
61
18
79
39
102
136
138
100
97
52
54
118
143
32
24
12
74
57
127
76
9
84
121
34
94
154
144
22
157
108
38
161
95
82
149
42
96
75
5
17
11
20
140
14
36
77
50
129
73
126
133
116
7
134
45
59
48
21
31
101
151
160
30
49
168
114
8
56
46
106
90
69
164
55
2
145
53
1
117
111
159
92
47
107
62
99
125
153
162
37
60
-1
EOF
